* SDPA format file. Generated by YALMIP 14-Jul-2024 17:48:38
101
2
-2 41 
-2.000000000000000 4.000000000000000 0.000000000000000 4.000000000000000 0.000000000000000 0.000000000000000 -4.000000000000000 -4.000000000000000 -4.000000000000000 4.000000000000000 0.000000000000000 0.000000000000000 0.000000000000000 0.000000000000000 0.000000000000000 0.000000000000000 0.000000000000000 0.000000000000000 0.000000000000000 0.000000000000000 0.000000000000000 0.000000000000000 0.000000000000000 0.000000000000000 0.000000000000000 0.000000000000000 0.000000000000000 0.000000000000000 0.000000000000000 0.000000000000000 0.000000000000000 0.000000000000000 0.000000000000000 0.000000000000000 0.000000000000000 0.000000000000000 0.000000000000000 0.000000000000000 0.000000000000000 0.000000000000000 0.000000000000000 0.000000000000000 0.000000000000000 0.000000000000000 0.000000000000000 0.000000000000000 0.000000000000000 0.000000000000000 0.000000000000000 0.000000000000000 0.000000000000000 0.000000000000000 0.000000000000000 0.000000000000000 0.000000000000000 0.000000000000000 0.000000000000000 0.000000000000000 0.000000000000000 0.000000000000000 0.000000000000000 0.000000000000000 0.000000000000000 0.000000000000000 0.000000000000000 0.000000000000000 0.000000000000000 0.000000000000000 0.000000000000000 0.000000000000000 0.000000000000000 0.000000000000000 0.000000000000000 0.000000000000000 0.000000000000000 0.000000000000000 0.000000000000000 0.000000000000000 0.000000000000000 0.000000000000000 0.000000000000000 0.000000000000000 0.000000000000000 0.000000000000000 0.000000000000000 0.000000000000000 0.000000000000000 0.000000000000000 0.000000000000000 0.000000000000000 0.000000000000000 0.000000000000000 0.000000000000000 0.000000000000000 0.000000000000000 0.000000000000000 0.000000000000000 0.000000000000000 0.000000000000000 0.000000000000000 0.000000000000000 
0 1 1 1 -1.0000000000000000000000000
0 1 2 2 1.0000000000000000000000000
1 1 1 1 -1.0000000000000000000000000
1 1 2 2 1.0000000000000000000000000
1 2 1 1 1.0000000000000000000000000
2 2 1 2 1.0000000000000000000000000
2 2 2 2 1.0000000000000000000000000
3 2 1 3 1.0000000000000000000000000
3 2 3 3 1.0000000000000000000000000
4 2 1 4 1.0000000000000000000000000
4 2 4 4 1.0000000000000000000000000
5 2 1 5 1.0000000000000000000000000
5 2 5 5 1.0000000000000000000000000
6 2 1 6 1.0000000000000000000000000
6 2 1 7 1.0000000000000000000000000
6 2 2 3 1.0000000000000000000000000
6 2 2 6 1.0000000000000000000000000
6 2 3 7 1.0000000000000000000000000
7 2 1 8 1.0000000000000000000000000
7 2 2 4 1.0000000000000000000000000
7 2 2 8 1.0000000000000000000000000
7 2 4 8 1.0000000000000000000000000
7 2 8 8 1.0000000000000000000000000
8 2 1 9 1.0000000000000000000000000
8 2 2 5 1.0000000000000000000000000
8 2 2 9 1.0000000000000000000000000
8 2 5 9 1.0000000000000000000000000
8 2 9 9 1.0000000000000000000000000
9 2 1 10 1.0000000000000000000000000
9 2 3 4 1.0000000000000000000000000
9 2 3 10 1.0000000000000000000000000
9 2 4 10 1.0000000000000000000000000
9 2 10 10 1.0000000000000000000000000
10 2 1 11 1.0000000000000000000000000
10 2 3 5 1.0000000000000000000000000
10 2 3 11 1.0000000000000000000000000
10 2 5 11 1.0000000000000000000000000
10 2 11 11 1.0000000000000000000000000
11 2 1 12 1.0000000000000000000000000
11 2 1 13 1.0000000000000000000000000
11 2 4 5 1.0000000000000000000000000
11 2 4 12 1.0000000000000000000000000
11 2 5 13 1.0000000000000000000000000
12 2 1 14 1.0000000000000000000000000
12 2 2 7 1.0000000000000000000000000
12 2 2 14 1.0000000000000000000000000
12 2 7 7 1.0000000000000000000000000
13 2 1 15 1.0000000000000000000000000
13 2 3 6 1.0000000000000000000000000
13 2 3 15 1.0000000000000000000000000
13 2 6 6 1.0000000000000000000000000
14 2 1 16 1.0000000000000000000000000
14 2 1 18 1.0000000000000000000000000
14 2 2 10 1.0000000000000000000000000
14 2 2 16 1.0000000000000000000000000
14 2 3 8 1.0000000000000000000000000
14 2 3 18 1.0000000000000000000000000
14 2 4 6 1.0000000000000000000000000
14 2 4 7 1.0000000000000000000000000
14 2 4 16 1.0000000000000000000000000
14 2 4 18 1.0000000000000000000000000
14 2 6 8 1.0000000000000000000000000
14 2 7 10 1.0000000000000000000000000
14 2 8 10 1.0000000000000000000000000
14 2 8 16 1.0000000000000000000000000
14 2 10 18 1.0000000000000000000000000
15 2 1 17 1.0000000000000000000000000
15 2 1 19 1.0000000000000000000000000
15 2 2 11 1.0000000000000000000000000
15 2 2 17 1.0000000000000000000000000
15 2 3 9 1.0000000000000000000000000
15 2 3 19 1.0000000000000000000000000
15 2 5 6 1.0000000000000000000000000
15 2 5 7 1.0000000000000000000000000
15 2 5 17 1.0000000000000000000000000
15 2 5 19 1.0000000000000000000000000
15 2 6 9 1.0000000000000000000000000
15 2 7 11 1.0000000000000000000000000
15 2 9 11 1.0000000000000000000000000
15 2 9 17 1.0000000000000000000000000
15 2 11 19 1.0000000000000000000000000
16 2 1 20 1.0000000000000000000000000
16 2 1 21 1.0000000000000000000000000
16 2 2 12 1.0000000000000000000000000
16 2 2 13 1.0000000000000000000000000
16 2 2 20 1.0000000000000000000000000
16 2 2 21 1.0000000000000000000000000
16 2 4 9 1.0000000000000000000000000
16 2 4 20 1.0000000000000000000000000
16 2 5 8 1.0000000000000000000000000
16 2 5 21 1.0000000000000000000000000
16 2 8 9 1.0000000000000000000000000
16 2 8 12 1.0000000000000000000000000
16 2 8 20 1.0000000000000000000000000
16 2 9 13 1.0000000000000000000000000
16 2 9 21 1.0000000000000000000000000
17 2 1 22 1.0000000000000000000000000
17 2 1 23 1.0000000000000000000000000
17 2 3 12 1.0000000000000000000000000
17 2 3 13 1.0000000000000000000000000
17 2 3 22 1.0000000000000000000000000
17 2 3 23 1.0000000000000000000000000
17 2 4 11 1.0000000000000000000000000
17 2 4 22 1.0000000000000000000000000
17 2 5 10 1.0000000000000000000000000
17 2 5 23 1.0000000000000000000000000
17 2 10 11 1.0000000000000000000000000
17 2 10 12 1.0000000000000000000000000
17 2 10 22 1.0000000000000000000000000
17 2 11 13 1.0000000000000000000000000
17 2 11 23 1.0000000000000000000000000
18 2 1 24 1.0000000000000000000000000
18 2 4 13 1.0000000000000000000000000
18 2 4 24 1.0000000000000000000000000
18 2 13 13 1.0000000000000000000000000
19 2 1 25 1.0000000000000000000000000
19 2 5 12 1.0000000000000000000000000
19 2 5 25 1.0000000000000000000000000
19 2 12 12 1.0000000000000000000000000
20 2 1 26 1.0000000000000000000000000
20 2 1 27 1.0000000000000000000000000
20 2 2 15 1.0000000000000000000000000
20 2 2 26 1.0000000000000000000000000
20 2 3 14 1.0000000000000000000000000
20 2 3 27 1.0000000000000000000000000
20 2 6 7 1.0000000000000000000000000
20 2 6 14 1.0000000000000000000000000
20 2 7 15 1.0000000000000000000000000
21 2 1 28 1.0000000000000000000000000
21 2 2 18 1.0000000000000000000000000
21 2 2 28 1.0000000000000000000000000
21 2 4 14 1.0000000000000000000000000
21 2 4 28 1.0000000000000000000000000
21 2 7 8 1.0000000000000000000000000
21 2 7 18 1.0000000000000000000000000
21 2 8 14 1.0000000000000000000000000
21 2 8 18 1.0000000000000000000000000
21 2 8 28 1.0000000000000000000000000
21 2 18 18 1.0000000000000000000000000
22 2 1 29 1.0000000000000000000000000
22 2 2 19 1.0000000000000000000000000
22 2 2 29 1.0000000000000000000000000
22 2 5 14 1.0000000000000000000000000
22 2 5 29 1.0000000000000000000000000
22 2 7 9 1.0000000000000000000000000
22 2 7 19 1.0000000000000000000000000
22 2 9 14 1.0000000000000000000000000
22 2 9 19 1.0000000000000000000000000
22 2 9 29 1.0000000000000000000000000
22 2 19 19 1.0000000000000000000000000
23 2 1 30 1.0000000000000000000000000
23 2 3 16 1.0000000000000000000000000
23 2 3 30 1.0000000000000000000000000
23 2 4 15 1.0000000000000000000000000
23 2 4 30 1.0000000000000000000000000
23 2 6 10 1.0000000000000000000000000
23 2 6 16 1.0000000000000000000000000
23 2 10 15 1.0000000000000000000000000
23 2 10 16 1.0000000000000000000000000
23 2 10 30 1.0000000000000000000000000
23 2 16 16 1.0000000000000000000000000
24 2 1 31 1.0000000000000000000000000
24 2 3 17 1.0000000000000000000000000
24 2 3 31 1.0000000000000000000000000
24 2 5 15 1.0000000000000000000000000
24 2 5 31 1.0000000000000000000000000
24 2 6 11 1.0000000000000000000000000
24 2 6 17 1.0000000000000000000000000
24 2 11 15 1.0000000000000000000000000
24 2 11 17 1.0000000000000000000000000
24 2 11 31 1.0000000000000000000000000
24 2 17 17 1.0000000000000000000000000
25 2 1 32 1.0000000000000000000000000
25 2 1 35 1.0000000000000000000000000
25 2 2 22 1.0000000000000000000000000
25 2 2 32 1.0000000000000000000000000
25 2 3 21 1.0000000000000000000000000
25 2 3 35 1.0000000000000000000000000
25 2 4 17 1.0000000000000000000000000
25 2 4 32 1.0000000000000000000000000
25 2 5 18 1.0000000000000000000000000
25 2 5 35 1.0000000000000000000000000
25 2 6 13 1.0000000000000000000000000
25 2 6 21 1.0000000000000000000000000
25 2 7 12 1.0000000000000000000000000
25 2 7 22 1.0000000000000000000000000
25 2 8 11 1.0000000000000000000000000
25 2 8 17 1.0000000000000000000000000
25 2 8 22 1.0000000000000000000000000
25 2 8 32 1.0000000000000000000000000
25 2 11 18 1.0000000000000000000000000
25 2 11 21 1.0000000000000000000000000
25 2 11 35 1.0000000000000000000000000
25 2 12 18 1.0000000000000000000000000
25 2 13 17 1.0000000000000000000000000
25 2 17 21 1.0000000000000000000000000
25 2 18 22 1.0000000000000000000000000
26 2 1 33 1.0000000000000000000000000
26 2 1 34 1.0000000000000000000000000
26 2 2 23 1.0000000000000000000000000
26 2 2 33 1.0000000000000000000000000
26 2 3 20 1.0000000000000000000000000
26 2 3 34 1.0000000000000000000000000
26 2 4 19 1.0000000000000000000000000
26 2 4 34 1.0000000000000000000000000
26 2 5 16 1.0000000000000000000000000
26 2 5 33 1.0000000000000000000000000
26 2 6 12 1.0000000000000000000000000
26 2 6 20 1.0000000000000000000000000
26 2 7 13 1.0000000000000000000000000
26 2 7 23 1.0000000000000000000000000
26 2 9 10 1.0000000000000000000000000
26 2 9 16 1.0000000000000000000000000
26 2 9 23 1.0000000000000000000000000
26 2 9 33 1.0000000000000000000000000
26 2 10 19 1.0000000000000000000000000
26 2 10 20 1.0000000000000000000000000
26 2 10 34 1.0000000000000000000000000
26 2 12 16 1.0000000000000000000000000
26 2 13 19 1.0000000000000000000000000
26 2 16 20 1.0000000000000000000000000
26 2 19 23 1.0000000000000000000000000
27 2 1 36 1.0000000000000000000000000
27 2 2 24 1.0000000000000000000000000
27 2 2 36 1.0000000000000000000000000
27 2 4 21 1.0000000000000000000000000
27 2 4 36 1.0000000000000000000000000
27 2 8 13 1.0000000000000000000000000
27 2 8 21 1.0000000000000000000000000
27 2 8 24 1.0000000000000000000000000
27 2 8 36 1.0000000000000000000000000
27 2 13 21 1.0000000000000000000000000
27 2 21 21 1.0000000000000000000000000
28 2 1 37 1.0000000000000000000000000
28 2 2 25 1.0000000000000000000000000
28 2 2 37 1.0000000000000000000000000
28 2 5 20 1.0000000000000000000000000
28 2 5 37 1.0000000000000000000000000
28 2 9 12 1.0000000000000000000000000
28 2 9 20 1.0000000000000000000000000
28 2 9 25 1.0000000000000000000000000
28 2 9 37 1.0000000000000000000000000
28 2 12 20 1.0000000000000000000000000
28 2 20 20 1.0000000000000000000000000
29 2 1 38 1.0000000000000000000000000
29 2 3 24 1.0000000000000000000000000
29 2 3 38 1.0000000000000000000000000
29 2 4 23 1.0000000000000000000000000
29 2 4 38 1.0000000000000000000000000
29 2 10 13 1.0000000000000000000000000
29 2 10 23 1.0000000000000000000000000
29 2 10 24 1.0000000000000000000000000
29 2 10 38 1.0000000000000000000000000
29 2 13 23 1.0000000000000000000000000
29 2 23 23 1.0000000000000000000000000
30 2 1 39 1.0000000000000000000000000
30 2 3 25 1.0000000000000000000000000
30 2 3 39 1.0000000000000000000000000
30 2 5 22 1.0000000000000000000000000
30 2 5 39 1.0000000000000000000000000
30 2 11 12 1.0000000000000000000000000
30 2 11 22 1.0000000000000000000000000
30 2 11 25 1.0000000000000000000000000
30 2 11 39 1.0000000000000000000000000
30 2 12 22 1.0000000000000000000000000
30 2 22 22 1.0000000000000000000000000
31 2 1 40 1.0000000000000000000000000
31 2 1 41 1.0000000000000000000000000
31 2 4 25 1.0000000000000000000000000
31 2 4 40 1.0000000000000000000000000
31 2 5 24 1.0000000000000000000000000
31 2 5 41 1.0000000000000000000000000
31 2 12 13 1.0000000000000000000000000
31 2 12 24 1.0000000000000000000000000
31 2 13 25 1.0000000000000000000000000
32 2 2 27 1.0000000000000000000000000
32 2 7 14 1.0000000000000000000000000
32 2 7 27 1.0000000000000000000000000
32 2 14 14 1.0000000000000000000000000
33 2 2 30 1.0000000000000000000000000
33 2 3 28 1.0000000000000000000000000
33 2 4 26 1.0000000000000000000000000
33 2 4 27 1.0000000000000000000000000
33 2 6 18 1.0000000000000000000000000
33 2 6 28 1.0000000000000000000000000
33 2 7 16 1.0000000000000000000000000
33 2 7 30 1.0000000000000000000000000
33 2 8 15 1.0000000000000000000000000
33 2 8 26 1.0000000000000000000000000
33 2 8 30 1.0000000000000000000000000
33 2 10 14 1.0000000000000000000000000
33 2 10 27 1.0000000000000000000000000
33 2 10 28 1.0000000000000000000000000
33 2 14 16 1.0000000000000000000000000
33 2 15 18 1.0000000000000000000000000
33 2 16 18 1.0000000000000000000000000
33 2 16 28 1.0000000000000000000000000
33 2 18 30 1.0000000000000000000000000
34 2 2 31 1.0000000000000000000000000
34 2 3 29 1.0000000000000000000000000
34 2 5 26 1.0000000000000000000000000
34 2 5 27 1.0000000000000000000000000
34 2 6 19 1.0000000000000000000000000
34 2 6 29 1.0000000000000000000000000
34 2 7 17 1.0000000000000000000000000
34 2 7 31 1.0000000000000000000000000
34 2 9 15 1.0000000000000000000000000
34 2 9 26 1.0000000000000000000000000
34 2 9 31 1.0000000000000000000000000
34 2 11 14 1.0000000000000000000000000
34 2 11 27 1.0000000000000000000000000
34 2 11 29 1.0000000000000000000000000
34 2 14 17 1.0000000000000000000000000
34 2 15 19 1.0000000000000000000000000
34 2 17 19 1.0000000000000000000000000
34 2 17 29 1.0000000000000000000000000
34 2 19 31 1.0000000000000000000000000
35 2 2 34 1.0000000000000000000000000
35 2 2 35 1.0000000000000000000000000
35 2 4 29 1.0000000000000000000000000
35 2 5 28 1.0000000000000000000000000
35 2 7 20 1.0000000000000000000000000
35 2 7 21 1.0000000000000000000000000
35 2 7 34 1.0000000000000000000000000
35 2 7 35 1.0000000000000000000000000
35 2 8 19 1.0000000000000000000000000
35 2 8 29 1.0000000000000000000000000
35 2 8 34 1.0000000000000000000000000
35 2 9 18 1.0000000000000000000000000
35 2 9 28 1.0000000000000000000000000
35 2 9 35 1.0000000000000000000000000
35 2 12 14 1.0000000000000000000000000
35 2 12 28 1.0000000000000000000000000
35 2 13 14 1.0000000000000000000000000
35 2 13 29 1.0000000000000000000000000
35 2 14 20 1.0000000000000000000000000
35 2 14 21 1.0000000000000000000000000
35 2 18 19 1.0000000000000000000000000
35 2 18 20 1.0000000000000000000000000
35 2 18 34 1.0000000000000000000000000
35 2 19 21 1.0000000000000000000000000
35 2 19 35 1.0000000000000000000000000
35 2 20 28 1.0000000000000000000000000
35 2 21 29 1.0000000000000000000000000
36 2 2 38 1.0000000000000000000000000
36 2 3 36 1.0000000000000000000000000
36 2 4 33 1.0000000000000000000000000
36 2 4 35 1.0000000000000000000000000
36 2 6 24 1.0000000000000000000000000
36 2 6 36 1.0000000000000000000000000
36 2 7 24 1.0000000000000000000000000
36 2 7 38 1.0000000000000000000000000
36 2 8 23 1.0000000000000000000000000
36 2 8 33 1.0000000000000000000000000
36 2 8 38 1.0000000000000000000000000
36 2 10 21 1.0000000000000000000000000
36 2 10 35 1.0000000000000000000000000
36 2 10 36 1.0000000000000000000000000
36 2 13 16 1.0000000000000000000000000
36 2 13 18 1.0000000000000000000000000
36 2 13 33 1.0000000000000000000000000
36 2 13 35 1.0000000000000000000000000
36 2 16 21 1.0000000000000000000000000
36 2 16 24 1.0000000000000000000000000
36 2 16 36 1.0000000000000000000000000
36 2 18 23 1.0000000000000000000000000
36 2 18 24 1.0000000000000000000000000
36 2 18 38 1.0000000000000000000000000
36 2 21 23 1.0000000000000000000000000
36 2 21 33 1.0000000000000000000000000
36 2 23 35 1.0000000000000000000000000
37 2 2 39 1.0000000000000000000000000
37 2 3 37 1.0000000000000000000000000
37 2 5 32 1.0000000000000000000000000
37 2 5 34 1.0000000000000000000000000
37 2 6 25 1.0000000000000000000000000
37 2 6 37 1.0000000000000000000000000
37 2 7 25 1.0000000000000000000000000
37 2 7 39 1.0000000000000000000000000
37 2 9 22 1.0000000000000000000000000
37 2 9 32 1.0000000000000000000000000
37 2 9 39 1.0000000000000000000000000
37 2 11 20 1.0000000000000000000000000
37 2 11 34 1.0000000000000000000000000
37 2 11 37 1.0000000000000000000000000
37 2 12 17 1.0000000000000000000000000
37 2 12 19 1.0000000000000000000000000
37 2 12 32 1.0000000000000000000000000
37 2 12 34 1.0000000000000000000000000
37 2 17 20 1.0000000000000000000000000
37 2 17 25 1.0000000000000000000000000
37 2 17 37 1.0000000000000000000000000
37 2 19 22 1.0000000000000000000000000
37 2 19 25 1.0000000000000000000000000
37 2 19 39 1.0000000000000000000000000
37 2 20 22 1.0000000000000000000000000
37 2 20 32 1.0000000000000000000000000
37 2 22 34 1.0000000000000000000000000
38 2 2 40 1.0000000000000000000000000
38 2 2 41 1.0000000000000000000000000
38 2 4 37 1.0000000000000000000000000
38 2 5 36 1.0000000000000000000000000
38 2 8 25 1.0000000000000000000000000
38 2 8 37 1.0000000000000000000000000
38 2 8 40 1.0000000000000000000000000
38 2 9 24 1.0000000000000000000000000
38 2 9 36 1.0000000000000000000000000
38 2 9 41 1.0000000000000000000000000
38 2 12 21 1.0000000000000000000000000
38 2 12 36 1.0000000000000000000000000
38 2 13 20 1.0000000000000000000000000
38 2 13 37 1.0000000000000000000000000
38 2 20 21 1.0000000000000000000000000
38 2 20 24 1.0000000000000000000000000
38 2 20 36 1.0000000000000000000000000
38 2 21 25 1.0000000000000000000000000
38 2 21 37 1.0000000000000000000000000
39 2 3 26 1.0000000000000000000000000
39 2 6 15 1.0000000000000000000000000
39 2 6 26 1.0000000000000000000000000
39 2 15 15 1.0000000000000000000000000
40 2 3 32 1.0000000000000000000000000
40 2 3 33 1.0000000000000000000000000
40 2 4 31 1.0000000000000000000000000
40 2 5 30 1.0000000000000000000000000
40 2 6 22 1.0000000000000000000000000
40 2 6 23 1.0000000000000000000000000
40 2 6 32 1.0000000000000000000000000
40 2 6 33 1.0000000000000000000000000
40 2 10 17 1.0000000000000000000000000
40 2 10 31 1.0000000000000000000000000
40 2 10 32 1.0000000000000000000000000
40 2 11 16 1.0000000000000000000000000
40 2 11 30 1.0000000000000000000000000
40 2 11 33 1.0000000000000000000000000
40 2 12 15 1.0000000000000000000000000
40 2 12 30 1.0000000000000000000000000
40 2 13 15 1.0000000000000000000000000
40 2 13 31 1.0000000000000000000000000
40 2 15 22 1.0000000000000000000000000
40 2 15 23 1.0000000000000000000000000
40 2 16 17 1.0000000000000000000000000
40 2 16 22 1.0000000000000000000000000
40 2 16 32 1.0000000000000000000000000
40 2 17 23 1.0000000000000000000000000
40 2 17 33 1.0000000000000000000000000
40 2 22 30 1.0000000000000000000000000
40 2 23 31 1.0000000000000000000000000
41 2 3 40 1.0000000000000000000000000
41 2 3 41 1.0000000000000000000000000
41 2 4 39 1.0000000000000000000000000
41 2 5 38 1.0000000000000000000000000
41 2 10 25 1.0000000000000000000000000
41 2 10 39 1.0000000000000000000000000
41 2 10 40 1.0000000000000000000000000
41 2 11 24 1.0000000000000000000000000
41 2 11 38 1.0000000000000000000000000
41 2 11 41 1.0000000000000000000000000
41 2 12 23 1.0000000000000000000000000
41 2 12 38 1.0000000000000000000000000
41 2 13 22 1.0000000000000000000000000
41 2 13 39 1.0000000000000000000000000
41 2 22 23 1.0000000000000000000000000
41 2 22 24 1.0000000000000000000000000
41 2 22 38 1.0000000000000000000000000
41 2 23 25 1.0000000000000000000000000
41 2 23 39 1.0000000000000000000000000
42 2 4 41 1.0000000000000000000000000
42 2 13 24 1.0000000000000000000000000
42 2 13 41 1.0000000000000000000000000
42 2 24 24 1.0000000000000000000000000
43 2 5 40 1.0000000000000000000000000
43 2 12 25 1.0000000000000000000000000
43 2 12 40 1.0000000000000000000000000
43 2 25 25 1.0000000000000000000000000
44 2 6 27 1.0000000000000000000000000
44 2 7 26 1.0000000000000000000000000
44 2 14 15 1.0000000000000000000000000
44 2 14 26 1.0000000000000000000000000
44 2 15 27 1.0000000000000000000000000
45 2 6 30 1.0000000000000000000000000
45 2 10 26 1.0000000000000000000000000
45 2 15 16 1.0000000000000000000000000
45 2 15 30 1.0000000000000000000000000
45 2 16 26 1.0000000000000000000000000
45 2 16 30 1.0000000000000000000000000
45 2 30 30 1.0000000000000000000000000
46 2 6 31 1.0000000000000000000000000
46 2 11 26 1.0000000000000000000000000
46 2 15 17 1.0000000000000000000000000
46 2 15 31 1.0000000000000000000000000
46 2 17 26 1.0000000000000000000000000
46 2 17 31 1.0000000000000000000000000
46 2 31 31 1.0000000000000000000000000
47 2 6 34 1.0000000000000000000000000
47 2 7 33 1.0000000000000000000000000
47 2 9 30 1.0000000000000000000000000
47 2 10 29 1.0000000000000000000000000
47 2 12 26 1.0000000000000000000000000
47 2 13 27 1.0000000000000000000000000
47 2 14 23 1.0000000000000000000000000
47 2 14 33 1.0000000000000000000000000
47 2 15 20 1.0000000000000000000000000
47 2 15 34 1.0000000000000000000000000
47 2 16 19 1.0000000000000000000000000
47 2 16 29 1.0000000000000000000000000
47 2 16 34 1.0000000000000000000000000
47 2 19 30 1.0000000000000000000000000
47 2 19 33 1.0000000000000000000000000
47 2 20 26 1.0000000000000000000000000
47 2 20 30 1.0000000000000000000000000
47 2 23 27 1.0000000000000000000000000
47 2 23 29 1.0000000000000000000000000
47 2 29 33 1.0000000000000000000000000
47 2 30 34 1.0000000000000000000000000
48 2 6 35 1.0000000000000000000000000
48 2 7 32 1.0000000000000000000000000
48 2 8 31 1.0000000000000000000000000
48 2 11 28 1.0000000000000000000000000
48 2 12 27 1.0000000000000000000000000
48 2 13 26 1.0000000000000000000000000
48 2 14 22 1.0000000000000000000000000
48 2 14 32 1.0000000000000000000000000
48 2 15 21 1.0000000000000000000000000
48 2 15 35 1.0000000000000000000000000
48 2 17 18 1.0000000000000000000000000
48 2 17 28 1.0000000000000000000000000
48 2 17 35 1.0000000000000000000000000
48 2 18 31 1.0000000000000000000000000
48 2 18 32 1.0000000000000000000000000
48 2 21 26 1.0000000000000000000000000
48 2 21 31 1.0000000000000000000000000
48 2 22 27 1.0000000000000000000000000
48 2 22 28 1.0000000000000000000000000
48 2 28 32 1.0000000000000000000000000
48 2 31 35 1.0000000000000000000000000
49 2 6 38 1.0000000000000000000000000
49 2 10 33 1.0000000000000000000000000
49 2 13 30 1.0000000000000000000000000
49 2 15 24 1.0000000000000000000000000
49 2 15 38 1.0000000000000000000000000
49 2 16 23 1.0000000000000000000000000
49 2 16 33 1.0000000000000000000000000
49 2 16 38 1.0000000000000000000000000
49 2 23 30 1.0000000000000000000000000
49 2 23 33 1.0000000000000000000000000
49 2 24 30 1.0000000000000000000000000
49 2 30 38 1.0000000000000000000000000
49 2 33 33 1.0000000000000000000000000
50 2 6 39 1.0000000000000000000000000
50 2 11 32 1.0000000000000000000000000
50 2 12 31 1.0000000000000000000000000
50 2 15 25 1.0000000000000000000000000
50 2 15 39 1.0000000000000000000000000
50 2 17 22 1.0000000000000000000000000
50 2 17 32 1.0000000000000000000000000
50 2 17 39 1.0000000000000000000000000
50 2 22 31 1.0000000000000000000000000
50 2 22 32 1.0000000000000000000000000
50 2 25 31 1.0000000000000000000000000
50 2 31 39 1.0000000000000000000000000
50 2 32 32 1.0000000000000000000000000
51 2 6 40 1.0000000000000000000000000
51 2 7 41 1.0000000000000000000000000
51 2 9 38 1.0000000000000000000000000
51 2 10 37 1.0000000000000000000000000
51 2 12 33 1.0000000000000000000000000
51 2 13 34 1.0000000000000000000000000
51 2 16 25 1.0000000000000000000000000
51 2 16 37 1.0000000000000000000000000
51 2 16 40 1.0000000000000000000000000
51 2 19 24 1.0000000000000000000000000
51 2 19 38 1.0000000000000000000000000
51 2 19 41 1.0000000000000000000000000
51 2 20 23 1.0000000000000000000000000
51 2 20 33 1.0000000000000000000000000
51 2 20 38 1.0000000000000000000000000
51 2 23 34 1.0000000000000000000000000
51 2 23 37 1.0000000000000000000000000
51 2 24 34 1.0000000000000000000000000
51 2 25 33 1.0000000000000000000000000
51 2 33 37 1.0000000000000000000000000
51 2 34 38 1.0000000000000000000000000
52 2 6 41 1.0000000000000000000000000
52 2 7 40 1.0000000000000000000000000
52 2 8 39 1.0000000000000000000000000
52 2 11 36 1.0000000000000000000000000
52 2 12 35 1.0000000000000000000000000
52 2 13 32 1.0000000000000000000000000
52 2 17 24 1.0000000000000000000000000
52 2 17 36 1.0000000000000000000000000
52 2 17 41 1.0000000000000000000000000
52 2 18 25 1.0000000000000000000000000
52 2 18 39 1.0000000000000000000000000
52 2 18 40 1.0000000000000000000000000
52 2 21 22 1.0000000000000000000000000
52 2 21 32 1.0000000000000000000000000
52 2 21 39 1.0000000000000000000000000
52 2 22 35 1.0000000000000000000000000
52 2 22 36 1.0000000000000000000000000
52 2 24 32 1.0000000000000000000000000
52 2 25 35 1.0000000000000000000000000
52 2 32 36 1.0000000000000000000000000
52 2 35 39 1.0000000000000000000000000
53 2 7 28 1.0000000000000000000000000
53 2 8 27 1.0000000000000000000000000
53 2 14 18 1.0000000000000000000000000
53 2 14 28 1.0000000000000000000000000
53 2 18 27 1.0000000000000000000000000
53 2 18 28 1.0000000000000000000000000
53 2 28 28 1.0000000000000000000000000
54 2 7 29 1.0000000000000000000000000
54 2 9 27 1.0000000000000000000000000
54 2 14 19 1.0000000000000000000000000
54 2 14 29 1.0000000000000000000000000
54 2 19 27 1.0000000000000000000000000
54 2 19 29 1.0000000000000000000000000
54 2 29 29 1.0000000000000000000000000
55 2 7 36 1.0000000000000000000000000
55 2 8 35 1.0000000000000000000000000
55 2 13 28 1.0000000000000000000000000
55 2 14 24 1.0000000000000000000000000
55 2 14 36 1.0000000000000000000000000
55 2 18 21 1.0000000000000000000000000
55 2 18 35 1.0000000000000000000000000
55 2 18 36 1.0000000000000000000000000
55 2 21 28 1.0000000000000000000000000
55 2 21 35 1.0000000000000000000000000
55 2 24 28 1.0000000000000000000000000
55 2 28 36 1.0000000000000000000000000
55 2 35 35 1.0000000000000000000000000
56 2 7 37 1.0000000000000000000000000
56 2 9 34 1.0000000000000000000000000
56 2 12 29 1.0000000000000000000000000
56 2 14 25 1.0000000000000000000000000
56 2 14 37 1.0000000000000000000000000
56 2 19 20 1.0000000000000000000000000
56 2 19 34 1.0000000000000000000000000
56 2 19 37 1.0000000000000000000000000
56 2 20 29 1.0000000000000000000000000
56 2 20 34 1.0000000000000000000000000
56 2 25 29 1.0000000000000000000000000
56 2 29 37 1.0000000000000000000000000
56 2 34 34 1.0000000000000000000000000
57 2 8 41 1.0000000000000000000000000
57 2 13 36 1.0000000000000000000000000
57 2 21 24 1.0000000000000000000000000
57 2 21 36 1.0000000000000000000000000
57 2 21 41 1.0000000000000000000000000
57 2 24 36 1.0000000000000000000000000
57 2 36 36 1.0000000000000000000000000
58 2 9 40 1.0000000000000000000000000
58 2 12 37 1.0000000000000000000000000
58 2 20 25 1.0000000000000000000000000
58 2 20 37 1.0000000000000000000000000
58 2 20 40 1.0000000000000000000000000
58 2 25 37 1.0000000000000000000000000
58 2 37 37 1.0000000000000000000000000
59 2 10 41 1.0000000000000000000000000
59 2 13 38 1.0000000000000000000000000
59 2 23 24 1.0000000000000000000000000
59 2 23 38 1.0000000000000000000000000
59 2 23 41 1.0000000000000000000000000
59 2 24 38 1.0000000000000000000000000
59 2 38 38 1.0000000000000000000000000
60 2 11 40 1.0000000000000000000000000
60 2 12 39 1.0000000000000000000000000
60 2 22 25 1.0000000000000000000000000
60 2 22 39 1.0000000000000000000000000
60 2 22 40 1.0000000000000000000000000
60 2 25 39 1.0000000000000000000000000
60 2 39 39 1.0000000000000000000000000
61 2 12 41 1.0000000000000000000000000
61 2 13 40 1.0000000000000000000000000
61 2 24 25 1.0000000000000000000000000
61 2 24 40 1.0000000000000000000000000
61 2 25 41 1.0000000000000000000000000
62 2 14 27 1.0000000000000000000000000
62 2 27 27 1.0000000000000000000000000
63 2 14 30 1.0000000000000000000000000
63 2 15 28 1.0000000000000000000000000
63 2 16 27 1.0000000000000000000000000
63 2 18 26 1.0000000000000000000000000
63 2 26 28 1.0000000000000000000000000
63 2 27 30 1.0000000000000000000000000
63 2 28 30 1.0000000000000000000000000
64 2 14 31 1.0000000000000000000000000
64 2 15 29 1.0000000000000000000000000
64 2 17 27 1.0000000000000000000000000
64 2 19 26 1.0000000000000000000000000
64 2 26 29 1.0000000000000000000000000
64 2 27 31 1.0000000000000000000000000
64 2 29 31 1.0000000000000000000000000
65 2 14 34 1.0000000000000000000000000
65 2 14 35 1.0000000000000000000000000
65 2 18 29 1.0000000000000000000000000
65 2 19 28 1.0000000000000000000000000
65 2 20 27 1.0000000000000000000000000
65 2 21 27 1.0000000000000000000000000
65 2 27 34 1.0000000000000000000000000
65 2 27 35 1.0000000000000000000000000
65 2 28 29 1.0000000000000000000000000
65 2 28 34 1.0000000000000000000000000
65 2 29 35 1.0000000000000000000000000
66 2 14 38 1.0000000000000000000000000
66 2 15 36 1.0000000000000000000000000
66 2 16 35 1.0000000000000000000000000
66 2 18 33 1.0000000000000000000000000
66 2 21 30 1.0000000000000000000000000
66 2 23 28 1.0000000000000000000000000
66 2 24 26 1.0000000000000000000000000
66 2 24 27 1.0000000000000000000000000
66 2 26 36 1.0000000000000000000000000
66 2 27 38 1.0000000000000000000000000
66 2 28 33 1.0000000000000000000000000
66 2 28 38 1.0000000000000000000000000
66 2 30 35 1.0000000000000000000000000
66 2 30 36 1.0000000000000000000000000
66 2 33 35 1.0000000000000000000000000
67 2 14 39 1.0000000000000000000000000
67 2 15 37 1.0000000000000000000000000
67 2 17 34 1.0000000000000000000000000
67 2 19 32 1.0000000000000000000000000
67 2 20 31 1.0000000000000000000000000
67 2 22 29 1.0000000000000000000000000
67 2 25 26 1.0000000000000000000000000
67 2 25 27 1.0000000000000000000000000
67 2 26 37 1.0000000000000000000000000
67 2 27 39 1.0000000000000000000000000
67 2 29 32 1.0000000000000000000000000
67 2 29 39 1.0000000000000000000000000
67 2 31 34 1.0000000000000000000000000
67 2 31 37 1.0000000000000000000000000
67 2 32 34 1.0000000000000000000000000
68 2 14 40 1.0000000000000000000000000
68 2 14 41 1.0000000000000000000000000
68 2 18 37 1.0000000000000000000000000
68 2 19 36 1.0000000000000000000000000
68 2 20 35 1.0000000000000000000000000
68 2 21 34 1.0000000000000000000000000
68 2 24 29 1.0000000000000000000000000
68 2 25 28 1.0000000000000000000000000
68 2 28 37 1.0000000000000000000000000
68 2 28 40 1.0000000000000000000000000
68 2 29 36 1.0000000000000000000000000
68 2 29 41 1.0000000000000000000000000
68 2 34 35 1.0000000000000000000000000
68 2 34 36 1.0000000000000000000000000
68 2 35 37 1.0000000000000000000000000
69 2 15 26 1.0000000000000000000000000
69 2 26 26 1.0000000000000000000000000
70 2 15 32 1.0000000000000000000000000
70 2 15 33 1.0000000000000000000000000
70 2 16 31 1.0000000000000000000000000
70 2 17 30 1.0000000000000000000000000
70 2 22 26 1.0000000000000000000000000
70 2 23 26 1.0000000000000000000000000
70 2 26 32 1.0000000000000000000000000
70 2 26 33 1.0000000000000000000000000
70 2 30 31 1.0000000000000000000000000
70 2 30 32 1.0000000000000000000000000
70 2 31 33 1.0000000000000000000000000
71 2 15 40 1.0000000000000000000000000
71 2 15 41 1.0000000000000000000000000
71 2 16 39 1.0000000000000000000000000
71 2 17 38 1.0000000000000000000000000
71 2 22 33 1.0000000000000000000000000
71 2 23 32 1.0000000000000000000000000
71 2 24 31 1.0000000000000000000000000
71 2 25 30 1.0000000000000000000000000
71 2 30 39 1.0000000000000000000000000
71 2 30 40 1.0000000000000000000000000
71 2 31 38 1.0000000000000000000000000
71 2 31 41 1.0000000000000000000000000
71 2 32 33 1.0000000000000000000000000
71 2 32 38 1.0000000000000000000000000
71 2 33 39 1.0000000000000000000000000
72 2 16 41 1.0000000000000000000000000
72 2 18 41 1.0000000000000000000000000
72 2 21 38 1.0000000000000000000000000
72 2 23 36 1.0000000000000000000000000
72 2 24 33 1.0000000000000000000000000
72 2 24 35 1.0000000000000000000000000
72 2 33 36 1.0000000000000000000000000
72 2 33 41 1.0000000000000000000000000
72 2 35 38 1.0000000000000000000000000
72 2 35 41 1.0000000000000000000000000
72 2 36 38 1.0000000000000000000000000
73 2 17 40 1.0000000000000000000000000
73 2 19 40 1.0000000000000000000000000
73 2 20 39 1.0000000000000000000000000
73 2 22 37 1.0000000000000000000000000
73 2 25 32 1.0000000000000000000000000
73 2 25 34 1.0000000000000000000000000
73 2 32 37 1.0000000000000000000000000
73 2 32 40 1.0000000000000000000000000
73 2 34 39 1.0000000000000000000000000
73 2 34 40 1.0000000000000000000000000
73 2 37 39 1.0000000000000000000000000
74 2 20 41 1.0000000000000000000000000
74 2 21 40 1.0000000000000000000000000
74 2 24 37 1.0000000000000000000000000
74 2 25 36 1.0000000000000000000000000
74 2 36 37 1.0000000000000000000000000
74 2 36 40 1.0000000000000000000000000
74 2 37 41 1.0000000000000000000000000
75 2 22 41 1.0000000000000000000000000
75 2 23 40 1.0000000000000000000000000
75 2 24 39 1.0000000000000000000000000
75 2 25 38 1.0000000000000000000000000
75 2 38 39 1.0000000000000000000000000
75 2 38 40 1.0000000000000000000000000
75 2 39 41 1.0000000000000000000000000
76 2 24 41 1.0000000000000000000000000
76 2 41 41 1.0000000000000000000000000
77 2 25 40 1.0000000000000000000000000
77 2 40 40 1.0000000000000000000000000
78 2 26 27 1.0000000000000000000000000
79 2 26 30 1.0000000000000000000000000
80 2 26 31 1.0000000000000000000000000
81 2 26 34 1.0000000000000000000000000
81 2 27 33 1.0000000000000000000000000
81 2 29 30 1.0000000000000000000000000
82 2 26 35 1.0000000000000000000000000
82 2 27 32 1.0000000000000000000000000
82 2 28 31 1.0000000000000000000000000
83 2 26 38 1.0000000000000000000000000
83 2 30 33 1.0000000000000000000000000
84 2 26 39 1.0000000000000000000000000
84 2 31 32 1.0000000000000000000000000
85 2 26 40 1.0000000000000000000000000
85 2 27 41 1.0000000000000000000000000
85 2 29 38 1.0000000000000000000000000
85 2 30 37 1.0000000000000000000000000
85 2 33 34 1.0000000000000000000000000
86 2 26 41 1.0000000000000000000000000
86 2 27 40 1.0000000000000000000000000
86 2 28 39 1.0000000000000000000000000
86 2 31 36 1.0000000000000000000000000
86 2 32 35 1.0000000000000000000000000
87 2 27 28 1.0000000000000000000000000
88 2 27 29 1.0000000000000000000000000
89 2 27 36 1.0000000000000000000000000
89 2 28 35 1.0000000000000000000000000
90 2 27 37 1.0000000000000000000000000
90 2 29 34 1.0000000000000000000000000
91 2 28 41 1.0000000000000000000000000
91 2 35 36 1.0000000000000000000000000
92 2 29 40 1.0000000000000000000000000
92 2 34 37 1.0000000000000000000000000
93 2 30 41 1.0000000000000000000000000
93 2 33 38 1.0000000000000000000000000
94 2 31 40 1.0000000000000000000000000
94 2 32 39 1.0000000000000000000000000
95 2 32 41 1.0000000000000000000000000
95 2 35 40 1.0000000000000000000000000
95 2 36 39 1.0000000000000000000000000
96 2 33 40 1.0000000000000000000000000
96 2 34 41 1.0000000000000000000000000
96 2 37 38 1.0000000000000000000000000
97 2 36 41 1.0000000000000000000000000
98 2 37 40 1.0000000000000000000000000
99 2 38 41 1.0000000000000000000000000
100 2 39 40 1.0000000000000000000000000
101 2 40 41 1.0000000000000000000000000
